c description: Random 3-CNF over 24 variables and 102 clauses
c generator: CNFgen (0.9.2)
c copyright: (C) 2012-2022 Massimo Lauria <massimo.lauria@uniroma1.it>
c url: https://massimolauria.net/cnfgen
c command line: cnfgen --output CNF_4.28/24_bit_102_740.cnf randkcnf 3 24 102
c
p cnf 24 102
6 12 21 0
18 -20 22 0
-9 15 20 0
11 -15 21 0
1 -4 14 0
-8 11 -20 0
-8 -14 16 0
9 15 21 0
11 14 -20 0
4 -12 -24 0
-5 -11 -19 0
-2 -10 23 0
6 -21 -22 0
9 -17 19 0
-19 -20 -22 0
6 11 -16 0
-3 -22 24 0
5 -14 -15 0
2 18 -19 0
3 -18 24 0
16 18 23 0
-1 -12 -24 0
-5 7 -19 0
4 -8 -20 0
-1 -5 -10 0
5 -7 13 0
7 -11 24 0
-13 -15 19 0
9 -12 -19 0
5 -17 -19 0
-4 21 22 0
-14 -15 24 0
5 -13 22 0
-17 19 20 0
-10 16 -24 0
2 -7 15 0
-5 -21 23 0
9 11 -12 0
-4 -6 15 0
3 -8 -12 0
5 14 20 0
-5 -11 19 0
3 14 19 0
-9 12 17 0
7 -8 24 0
-1 10 -17 0
2 -8 21 0
-9 -16 17 0
-4 -7 -14 0
10 11 24 0
10 -11 21 0
7 -17 23 0
8 17 -22 0
7 16 -19 0
4 -18 -24 0
-2 -3 -16 0
1 -9 -11 0
-5 11 -24 0
-7 13 -21 0
-3 -5 24 0
-7 11 -15 0
1 14 18 0
-10 22 24 0
-1 -7 23 0
4 -13 -24 0
2 5 15 0
-15 -20 21 0
-7 17 -24 0
-3 -6 9 0
-2 -3 13 0
-3 -6 13 0
4 20 24 0
-8 -21 -23 0
6 11 15 0
6 11 -15 0
12 14 -17 0
-3 18 -24 0
8 20 -24 0
-1 7 -9 0
-1 -13 14 0
8 21 -23 0
-2 10 -12 0
-1 -15 24 0
4 -13 -19 0
2 -7 23 0
6 8 -22 0
-5 -7 19 0
6 15 19 0
2 -3 -4 0
5 11 -15 0
5 -6 -11 0
4 -9 -23 0
8 19 24 0
7 -9 -14 0
-8 18 -19 0
-3 -20 24 0
6 -12 17 0
-4 -6 -12 0
7 17 -24 0
-1 2 18 0
-5 8 9 0
-7 -11 -21 0
